0 38 263 294 285 240 147 256 84 286 252 118 25 279 97 94 213 167 198 41 0
0 182 221 348 119 271 51 135 74 56 308 230 334 0
0 243 290 205 216 255 330 36 81 6 262 231 174 346 270 347 311 207 5 188 128 295 141 254 162 127 0
0 273 79 146 326 98 176 202 233 105 199 61 284 152 281 14 338 112 310 151 246 0
0 42 328 313 260 131 165 228 298 299 248 196 115 169 208 4 224 34 209 140 19 337 125 67 0
